Prioridad = [8, 7, 4, 3, 4, 7, 4, 4, 5, 4, 2, 3, 2, 10, 3, 3, 1, 3, 3, 2, 4, 3, 5, 5, 7, 4, 2, 6, 4, 5, 4, 9, 3, 2, 3, 2, 5, 5, 1, 5, 9, 2, 5, 1, 4, 3, 9, 2, 4, 5, 5, 7, 4, 2, 5, 3, 4, 9, 4, 1, 3, 5, 4, 3, 3, 10, 9, 2];
